ilp_joint/output/phototropism_ilp.lp
Maximize
  0.00155262902681221 Z_593_0_0 + 0.0336382996138146 Z_593_0_1
   + 0.1263670983946565 Z_593_0_2 + 0.00199936109695366 Z_593_0_3
   + 0.0299175256037244 Z_8_0_0 + 0.1426191790613789 Z_8_0_1
   + 0.0209117515532725 Z_8_0_2 + 0.0592621778395781 Z_8_0_3
   + 0.0255654646415809 Z_192_0_0 + 0.1024481305636895 Z_192_0_1
   + 0.0365448681709604 Z_192_0_2 + 0.1462795181274983 Z_192_0_3
   + 0.00307821398252158 Z_81_21_0 + 0.0334218081739134 Z_81_21_1
   + 0.1020587613684629 Z_81_21_2 + 0.0146789696358274 Z_81_21_3
   + 0.0540588449580259 Z_81_5_0 + 0.035274124536746 Z_81_5_1
   + 0.0278955716681542 Z_81_5_2 + 0.028247709225284 Z_81_5_3
   + 0.0554291597491525 Z_81_3_0 + 0.4192426883030556 Z_81_3_1
   + 0.0277736474741403 Z_81_3_2 + 0.0920031412642196 Z_81_3_3
   + 0.0146486767544885 Z_81_0_0 + 0.0667497689954734 Z_81_0_1
   + 0.0997581836848342 Z_81_0_2 + 0.0244184384853444 Z_81_0_3
   + 0.00792458872878358 Z_81_4_0 + 0.1088898838783484 Z_81_4_1
   + 0.1809648362081004 Z_81_4_2 + 0.0372094823661597 Z_81_4_3
   + 0.0146486767544885 Z_81_1_0 + 0.0667497689954734 Z_81_1_1
   + 0.0997581836848342 Z_81_1_2 + 0.0244184384853444 Z_81_1_3
   + 0.00814733729288454 Z_81_6_0 + 0.2115127861516325 Z_81_6_1
   + 0.0220107511049704 Z_81_6_2 + 0.023518294049255 Z_81_6_3
   + 0.00792458872878358 Z_81_2_0 + 0.1088898838783484 Z_81_2_1
   + 0.1809648362081004 Z_81_2_2 + 0.0372094823661597 Z_81_2_3
   + 0.0282488113199537 Z_76_0_0 + 0.0533982748008258 Z_76_0_1
   + 0.0212585451277692 Z_76_0_2 + 0.281774188862586 Z_76_0_3
   + 0.038190646575632 Z_509_0_0 + 0.3102444838300709 Z_509_0_1
   + 0.0217581144788521 Z_509_0_2 + 0.0513301535594635 Z_509_0_3
   + 4.0093843187543053e-04 Z_71_0_0 + 0.1050897076504642 Z_71_0_1
   + 0.6201091279947392 Z_71_0_2 + 0.0161549653148639 Z_71_0_3 + [
   0.0121687398593834 Z_593_0_0 * Z_8_0_0
   + 0.0121687398593834 Z_593_0_0 * Z_81_1_0
   + 0.0121687398593834 Z_593_0_0 * Z_81_6_0
   + 0.0121687398593834 Z_593_0_0 * Z_81_2_0
   + 0.0121687398593834 Z_593_0_1 * Z_8_0_1
   + 0.0121687398593834 Z_593_0_1 * Z_81_1_1
   + 0.0121687398593834 Z_593_0_1 * Z_81_6_1
   + 0.0121687398593834 Z_593_0_1 * Z_81_2_1
   + 0.0121687398593834 Z_593_0_2 * Z_8_0_2
   + 0.0121687398593834 Z_593_0_2 * Z_81_1_2
   + 0.0121687398593834 Z_593_0_2 * Z_81_6_2
   + 0.0121687398593834 Z_593_0_2 * Z_81_2_2
   + 0.0121687398593834 Z_593_0_3 * Z_8_0_3
   + 0.0121687398593834 Z_593_0_3 * Z_81_1_3
   + 0.0121687398593834 Z_593_0_3 * Z_81_6_3
   + 0.0121687398593834 Z_593_0_3 * Z_81_2_3
   + 0.1725161853264159 Z_8_0_0 * Z_192_0_0 + 0.4 Z_8_0_0 * Z_81_3_0
   + 0.4 Z_8_0_0 * Z_81_4_0 + 0.2864271751106258 Z_8_0_0 * Z_81_1_0
   + 0.122626919092676 Z_8_0_0 * Z_81_6_0
   + 0.2032291928658699 Z_8_0_0 * Z_81_2_0
   + 0.1501224273513523 Z_8_0_0 * Z_76_0_0 + 0.4 Z_8_0_0 * Z_509_0_0
   + 0.1725161853264159 Z_8_0_1 * Z_192_0_1 + 0.4 Z_8_0_1 * Z_81_3_1
   + 0.4 Z_8_0_1 * Z_81_4_1 + 0.2864271751106258 Z_8_0_1 * Z_81_1_1
   + 0.122626919092676 Z_8_0_1 * Z_81_6_1
   + 0.2032291928658699 Z_8_0_1 * Z_81_2_1
   + 0.1501224273513523 Z_8_0_1 * Z_76_0_1 + 0.4 Z_8_0_1 * Z_509_0_1
   + 0.1725161853264159 Z_8_0_2 * Z_192_0_2 + 0.4 Z_8_0_2 * Z_81_3_2
   + 0.4 Z_8_0_2 * Z_81_4_2 + 0.2864271751106258 Z_8_0_2 * Z_81_1_2
   + 0.122626919092676 Z_8_0_2 * Z_81_6_2
   + 0.2032291928658699 Z_8_0_2 * Z_81_2_2
   + 0.1501224273513523 Z_8_0_2 * Z_76_0_2 + 0.4 Z_8_0_2 * Z_509_0_2
   + 0.1725161853264159 Z_8_0_3 * Z_192_0_3 + 0.4 Z_8_0_3 * Z_81_3_3
   + 0.4 Z_8_0_3 * Z_81_4_3 + 0.2864271751106258 Z_8_0_3 * Z_81_1_3
   + 0.122626919092676 Z_8_0_3 * Z_81_6_3
   + 0.2032291928658699 Z_8_0_3 * Z_81_2_3
   + 0.1501224273513523 Z_8_0_3 * Z_76_0_3 + 0.4 Z_8_0_3 * Z_509_0_3
   + 0.4 Z_192_0_0 * Z_81_3_0 + 0.4 Z_192_0_0 * Z_81_4_0
   + 0.2585954456176427 Z_192_0_0 * Z_81_1_0
   + 0.1729230118841133 Z_192_0_0 * Z_81_6_0
   + 0.2017129260598211 Z_192_0_0 * Z_81_2_0
   + 0.1641895061199785 Z_192_0_0 * Z_76_0_0 + 0.4 Z_192_0_1 * Z_81_3_1
   + 0.4 Z_192_0_1 * Z_81_4_1 + 0.2585954456176427 Z_192_0_1 * Z_81_1_1
   + 0.1729230118841133 Z_192_0_1 * Z_81_6_1
   + 0.2017129260598211 Z_192_0_1 * Z_81_2_1
   + 0.1641895061199785 Z_192_0_1 * Z_76_0_1 + 0.4 Z_192_0_2 * Z_81_3_2
   + 0.4 Z_192_0_2 * Z_81_4_2 + 0.2585954456176427 Z_192_0_2 * Z_81_1_2
   + 0.1729230118841133 Z_192_0_2 * Z_81_6_2
   + 0.2017129260598211 Z_192_0_2 * Z_81_2_2
   + 0.1641895061199785 Z_192_0_2 * Z_76_0_2 + 0.4 Z_192_0_3 * Z_81_3_3
   + 0.4 Z_192_0_3 * Z_81_4_3 + 0.2585954456176427 Z_192_0_3 * Z_81_1_3
   + 0.1729230118841133 Z_192_0_3 * Z_81_6_3
   + 0.2017129260598211 Z_192_0_3 * Z_81_2_3
   + 0.1641895061199785 Z_192_0_3 * Z_76_0_3
   + 1.1111111111111109e-04 Z_81_21_0 * Z_76_0_0
   + 1.1111111111111109e-04 Z_81_21_1 * Z_76_0_1
   + 1.1111111111111109e-04 Z_81_21_2 * Z_76_0_2
   + 1.1111111111111109e-04 Z_81_21_3 * Z_76_0_3 + 0.4 Z_81_4_0 * Z_76_0_0
   + 0.4 Z_81_4_1 * Z_76_0_1 + 0.4 Z_81_4_2 * Z_76_0_2
   + 0.4 Z_81_4_3 * Z_76_0_3 + 0.0962768327691692 Z_81_1_0 * Z_76_0_0
   + 0.4 Z_81_1_0 * Z_509_0_0 + 0.0962768327691692 Z_81_1_1 * Z_76_0_1
   + 0.4 Z_81_1_1 * Z_509_0_1 + 0.0962768327691692 Z_81_1_2 * Z_76_0_2
   + 0.4 Z_81_1_2 * Z_509_0_2 + 0.0962768327691692 Z_81_1_3 * Z_76_0_3
   + 0.4 Z_81_1_3 * Z_509_0_3 + 0.0818087554003982 Z_81_6_0 * Z_76_0_0
   + 0.4 Z_81_6_0 * Z_509_0_0 + 0.0818087554003982 Z_81_6_1 * Z_76_0_1
   + 0.4 Z_81_6_1 * Z_509_0_1 + 0.0818087554003982 Z_81_6_2 * Z_76_0_2
   + 0.4 Z_81_6_2 * Z_509_0_2 + 0.0818087554003982 Z_81_6_3 * Z_76_0_3
   + 0.4 Z_81_6_3 * Z_509_0_3 + 0.1010660206968782 Z_81_2_0 * Z_76_0_0
   + 0.4 Z_81_2_0 * Z_509_0_0 + 0.1010660206968782 Z_81_2_1 * Z_76_0_1
   + 0.4 Z_81_2_1 * Z_509_0_1 + 0.1010660206968782 Z_81_2_2 * Z_76_0_2
   + 0.4 Z_81_2_2 * Z_509_0_2 + 0.1010660206968782 Z_81_2_3 * Z_76_0_3
   + 0.4 Z_81_2_3 * Z_509_0_3 + 0.4 Z_76_0_0 * Z_509_0_0
   + 0.4 Z_76_0_1 * Z_509_0_1 + 0.4 Z_76_0_2 * Z_509_0_2
   + 0.4 Z_76_0_3 * Z_509_0_3 ] / 2 
Subject To
 constraint1_5930: Z_593_0_0 + Z_593_0_1 + Z_593_0_2 + Z_593_0_3 <= 1
 constraint1_80: Z_8_0_0 + Z_8_0_1 + Z_8_0_2 + Z_8_0_3 <= 1
 constraint1_1920: Z_192_0_0 + Z_192_0_1 + Z_192_0_2 + Z_192_0_3 <= 1
 constraint1_8121: Z_81_21_0 + Z_81_21_1 + Z_81_21_2 + Z_81_21_3 <= 1
 constraint1_815: Z_81_5_0 + Z_81_5_1 + Z_81_5_2 + Z_81_5_3 <= 1
 constraint1_813: Z_81_3_0 + Z_81_3_1 + Z_81_3_2 + Z_81_3_3 <= 1
 constraint1_810: Z_81_0_0 + Z_81_0_1 + Z_81_0_2 + Z_81_0_3 <= 1
 constraint1_814: Z_81_4_0 + Z_81_4_1 + Z_81_4_2 + Z_81_4_3 <= 1
 constraint1_811: Z_81_1_0 + Z_81_1_1 + Z_81_1_2 + Z_81_1_3 <= 1
 constraint1_816: Z_81_6_0 + Z_81_6_1 + Z_81_6_2 + Z_81_6_3 <= 1
 constraint1_812: Z_81_2_0 + Z_81_2_1 + Z_81_2_2 + Z_81_2_3 <= 1
 constraint1_760: Z_76_0_0 + Z_76_0_1 + Z_76_0_2 + Z_76_0_3 <= 1
 constraint1_5090: Z_509_0_0 + Z_509_0_1 + Z_509_0_2 + Z_509_0_3 <= 1
 constraint1_710: Z_71_0_0 + Z_71_0_1 + Z_71_0_2 + Z_71_0_3 <= 1
 constraint2_5930: Z_593_0_0 <= 1
 constraint2_5931: Z_593_0_1 <= 1
 constraint2_5932: Z_593_0_2 <= 1
 constraint2_5933: Z_593_0_3 <= 1
 constraint2_80: Z_8_0_0 <= 1
 constraint2_81: Z_8_0_1 <= 1
 constraint2_82: Z_8_0_2 <= 1
 constraint2_83: Z_8_0_3 <= 1
 constraint2_1920: Z_192_0_0 <= 1
 constraint2_1921: Z_192_0_1 <= 1
 constraint2_1922: Z_192_0_2 <= 1
 constraint2_1923: Z_192_0_3 <= 1
 constraint2_810: Z_81_21_0 + Z_81_5_0 + Z_81_3_0 + Z_81_0_0 + Z_81_4_0
   + Z_81_1_0 + Z_81_6_0 + Z_81_2_0 <= 1
 constraint2_811: Z_81_21_1 + Z_81_5_1 + Z_81_3_1 + Z_81_0_1 + Z_81_4_1
   + Z_81_1_1 + Z_81_6_1 + Z_81_2_1 <= 1
 constraint2_812: Z_81_21_2 + Z_81_5_2 + Z_81_3_2 + Z_81_0_2 + Z_81_4_2
   + Z_81_1_2 + Z_81_6_2 + Z_81_2_2 <= 1
 constraint2_813: Z_81_21_3 + Z_81_5_3 + Z_81_3_3 + Z_81_0_3 + Z_81_4_3
   + Z_81_1_3 + Z_81_6_3 + Z_81_2_3 <= 1
 constraint2_760: Z_76_0_0 <= 1
 constraint2_761: Z_76_0_1 <= 1
 constraint2_762: Z_76_0_2 <= 1
 constraint2_763: Z_76_0_3 <= 1
 constraint2_5090: Z_509_0_0 <= 1
 constraint2_5091: Z_509_0_1 <= 1
 constraint2_5092: Z_509_0_2 <= 1
 constraint2_5093: Z_509_0_3 <= 1
 constraint2_710: Z_71_0_0 <= 1
 constraint2_711: Z_71_0_1 <= 1
 constraint2_712: Z_71_0_2 <= 1
 constraint2_713: Z_71_0_3 <= 1
Bounds
Binaries
 Z_593_0_0 Z_593_0_1 Z_593_0_2 Z_593_0_3 Z_8_0_0 Z_8_0_1 Z_8_0_2 Z_8_0_3
 Z_192_0_0 Z_192_0_1 Z_192_0_2 Z_192_0_3 Z_81_21_0 Z_81_21_1 Z_81_21_2
 Z_81_21_3 Z_81_5_0 Z_81_5_1 Z_81_5_2 Z_81_5_3 Z_81_3_0 Z_81_3_1 Z_81_3_2
 Z_81_3_3 Z_81_0_0 Z_81_0_1 Z_81_0_2 Z_81_0_3 Z_81_4_0 Z_81_4_1 Z_81_4_2
 Z_81_4_3 Z_81_1_0 Z_81_1_1 Z_81_1_2 Z_81_1_3 Z_81_6_0 Z_81_6_1 Z_81_6_2
 Z_81_6_3 Z_81_2_0 Z_81_2_1 Z_81_2_2 Z_81_2_3 Z_76_0_0 Z_76_0_1 Z_76_0_2
 Z_76_0_3 Z_509_0_0 Z_509_0_1 Z_509_0_2 Z_509_0_3 Z_71_0_0 Z_71_0_1
 Z_71_0_2 Z_71_0_3
End
