ilp_joint/output/phototropism_ilp.mps
NAME phototropism_srl_ilp
* Max problem is converted into Min one
ROWS
 N  OBJ
 L  constraint1_5930
 L  constraint1_80
 L  constraint1_1920
 L  constraint1_8121
 L  constraint1_815
 L  constraint1_813
 L  constraint1_810
 L  constraint1_814
 L  constraint1_811
 L  constraint1_816
 L  constraint1_812
 L  constraint1_760
 L  constraint1_5090
 L  constraint1_710
 L  constraint2_5930
 L  constraint2_5931
 L  constraint2_5932
 L  constraint2_5933
 L  constraint2_80
 L  constraint2_81
 L  constraint2_82
 L  constraint2_83
 L  constraint2_1920
 L  constraint2_1921
 L  constraint2_1922
 L  constraint2_1923
 L  constraint2_810
 L  constraint2_811
 L  constraint2_812
 L  constraint2_813
 L  constraint2_760
 L  constraint2_761
 L  constraint2_762
 L  constraint2_763
 L  constraint2_5090
 L  constraint2_5091
 L  constraint2_5092
 L  constraint2_5093
 L  constraint2_710
 L  constraint2_711
 L  constraint2_712
 L  constraint2_713
COLUMNS
    MARKER    'MARKER'                 'INTORG'
    Z_593_0_0  OBJ       -1.5526290268122135e-03
    Z_593_0_0  constraint1_5930  1
    Z_593_0_0  constraint2_5930  1
    Z_593_0_1  OBJ       -3.3638299613814607e-02
    Z_593_0_1  constraint1_5930  1
    Z_593_0_1  constraint2_5931  1
    Z_593_0_2  OBJ       -1.2636709839465646e-01
    Z_593_0_2  constraint1_5930  1
    Z_593_0_2  constraint2_5932  1
    Z_593_0_3  OBJ       -1.9993610969536589e-03
    Z_593_0_3  constraint1_5930  1
    Z_593_0_3  constraint2_5933  1
    Z_8_0_0   OBJ       -2.9917525603724394e-02
    Z_8_0_0   constraint1_80  1
    Z_8_0_0   constraint2_80  1
    Z_8_0_1   OBJ       -1.4261917906137891e-01
    Z_8_0_1   constraint1_80  1
    Z_8_0_1   constraint2_81  1
    Z_8_0_2   OBJ       -2.0911751553272517e-02
    Z_8_0_2   constraint1_80  1
    Z_8_0_2   constraint2_82  1
    Z_8_0_3   OBJ       -5.9262177839578052e-02
    Z_8_0_3   constraint1_80  1
    Z_8_0_3   constraint2_83  1
    Z_192_0_0  OBJ       -2.5565464641580927e-02
    Z_192_0_0  constraint1_1920  1
    Z_192_0_0  constraint2_1920  1
    Z_192_0_1  OBJ       -1.0244813056368945e-01
    Z_192_0_1  constraint1_1920  1
    Z_192_0_1  constraint2_1921  1
    Z_192_0_2  OBJ       -3.6544868170960421e-02
    Z_192_0_2  constraint1_1920  1
    Z_192_0_2  constraint2_1922  1
    Z_192_0_3  OBJ       -1.4627951812749826e-01
    Z_192_0_3  constraint1_1920  1
    Z_192_0_3  constraint2_1923  1
    Z_81_21_0  OBJ       -3.0782139825215825e-03
    Z_81_21_0  constraint1_8121  1
    Z_81_21_0  constraint2_810  1
    Z_81_21_1  OBJ       -3.3421808173913416e-02
    Z_81_21_1  constraint1_8121  1
    Z_81_21_1  constraint2_811  1
    Z_81_21_2  OBJ       -1.0205876136846291e-01
    Z_81_21_2  constraint1_8121  1
    Z_81_21_2  constraint2_812  1
    Z_81_21_3  OBJ       -1.4678969635827360e-02
    Z_81_21_3  constraint1_8121  1
    Z_81_21_3  constraint2_813  1
    Z_81_5_0  OBJ       -5.4058844958025876e-02
    Z_81_5_0  constraint1_815  1
    Z_81_5_0  constraint2_810  1
    Z_81_5_1  OBJ       -3.5274124536745992e-02
    Z_81_5_1  constraint1_815  1
    Z_81_5_1  constraint2_811  1
    Z_81_5_2  OBJ       -2.7895571668154207e-02
    Z_81_5_2  constraint1_815  1
    Z_81_5_2  constraint2_812  1
    Z_81_5_3  OBJ       -2.8247709225283957e-02
    Z_81_5_3  constraint1_815  1
    Z_81_5_3  constraint2_813  1
    Z_81_3_0  OBJ       -5.5429159749152523e-02
    Z_81_3_0  constraint1_813  1
    Z_81_3_0  constraint2_810  1
    Z_81_3_1  OBJ       -4.1924268830305561e-01
    Z_81_3_1  constraint1_813  1
    Z_81_3_1  constraint2_811  1
    Z_81_3_2  OBJ       -2.7773647474140295e-02
    Z_81_3_2  constraint1_813  1
    Z_81_3_2  constraint2_812  1
    Z_81_3_3  OBJ       -9.2003141264219629e-02
    Z_81_3_3  constraint1_813  1
    Z_81_3_3  constraint2_813  1
    Z_81_0_0  OBJ       -1.4648676754488488e-02
    Z_81_0_0  constraint1_810  1
    Z_81_0_0  constraint2_810  1
    Z_81_0_1  OBJ       -6.6749768995473441e-02
    Z_81_0_1  constraint1_810  1
    Z_81_0_1  constraint2_811  1
    Z_81_0_2  OBJ       -9.9758183684834204e-02
    Z_81_0_2  constraint1_810  1
    Z_81_0_2  constraint2_812  1
    Z_81_0_3  OBJ       -2.4418438485344422e-02
    Z_81_0_3  constraint1_810  1
    Z_81_0_3  constraint2_813  1
    Z_81_4_0  OBJ       -7.9245887287835767e-03
    Z_81_4_0  constraint1_814  1
    Z_81_4_0  constraint2_810  1
    Z_81_4_1  OBJ       -1.0888988387834844e-01
    Z_81_4_1  constraint1_814  1
    Z_81_4_1  constraint2_811  1
    Z_81_4_2  OBJ       -1.8096483620810036e-01
    Z_81_4_2  constraint1_814  1
    Z_81_4_2  constraint2_812  1
    Z_81_4_3  OBJ       -3.7209482366159674e-02
    Z_81_4_3  constraint1_814  1
    Z_81_4_3  constraint2_813  1
    Z_81_1_0  OBJ       -1.4648676754488488e-02
    Z_81_1_0  constraint1_811  1
    Z_81_1_0  constraint2_810  1
    Z_81_1_1  OBJ       -6.6749768995473441e-02
    Z_81_1_1  constraint1_811  1
    Z_81_1_1  constraint2_811  1
    Z_81_1_2  OBJ       -9.9758183684834204e-02
    Z_81_1_2  constraint1_811  1
    Z_81_1_2  constraint2_812  1
    Z_81_1_3  OBJ       -2.4418438485344422e-02
    Z_81_1_3  constraint1_811  1
    Z_81_1_3  constraint2_813  1
    Z_81_6_0  OBJ       -8.1473372928845388e-03
    Z_81_6_0  constraint1_816  1
    Z_81_6_0  constraint2_810  1
    Z_81_6_1  OBJ       -2.1151278615163246e-01
    Z_81_6_1  constraint1_816  1
    Z_81_6_1  constraint2_811  1
    Z_81_6_2  OBJ       -2.2010751104970427e-02
    Z_81_6_2  constraint1_816  1
    Z_81_6_2  constraint2_812  1
    Z_81_6_3  OBJ       -2.3518294049254981e-02
    Z_81_6_3  constraint1_816  1
    Z_81_6_3  constraint2_813  1
    Z_81_2_0  OBJ       -7.9245887287835767e-03
    Z_81_2_0  constraint1_812  1
    Z_81_2_0  constraint2_810  1
    Z_81_2_1  OBJ       -1.0888988387834844e-01
    Z_81_2_1  constraint1_812  1
    Z_81_2_1  constraint2_811  1
    Z_81_2_2  OBJ       -1.8096483620810036e-01
    Z_81_2_2  constraint1_812  1
    Z_81_2_2  constraint2_812  1
    Z_81_2_3  OBJ       -3.7209482366159674e-02
    Z_81_2_3  constraint1_812  1
    Z_81_2_3  constraint2_813  1
    Z_76_0_0  OBJ       -2.8248811319953725e-02
    Z_76_0_0  constraint1_760  1
    Z_76_0_0  constraint2_760  1
    Z_76_0_1  OBJ       -5.3398274800825797e-02
    Z_76_0_1  constraint1_760  1
    Z_76_0_1  constraint2_761  1
    Z_76_0_2  OBJ       -2.1258545127769202e-02
    Z_76_0_2  constraint1_760  1
    Z_76_0_2  constraint2_762  1
    Z_76_0_3  OBJ       -2.8177418886258598e-01
    Z_76_0_3  constraint1_760  1
    Z_76_0_3  constraint2_763  1
    Z_509_0_0  OBJ       -3.8190646575632030e-02
    Z_509_0_0  constraint1_5090  1
    Z_509_0_0  constraint2_5090  1
    Z_509_0_1  OBJ       -3.1024448383007092e-01
    Z_509_0_1  constraint1_5090  1
    Z_509_0_1  constraint2_5091  1
    Z_509_0_2  OBJ       -2.1758114478852054e-02
    Z_509_0_2  constraint1_5090  1
    Z_509_0_2  constraint2_5092  1
    Z_509_0_3  OBJ       -5.1330153559463465e-02
    Z_509_0_3  constraint1_5090  1
    Z_509_0_3  constraint2_5093  1
    Z_71_0_0  OBJ       -4.0093843187543053e-04
    Z_71_0_0  constraint1_710  1
    Z_71_0_0  constraint2_710  1
    Z_71_0_1  OBJ       -1.0508970765046424e-01
    Z_71_0_1  constraint1_710  1
    Z_71_0_1  constraint2_711  1
    Z_71_0_2  OBJ       -6.2010912799473916e-01
    Z_71_0_2  constraint1_710  1
    Z_71_0_2  constraint2_712  1
    Z_71_0_3  OBJ       -1.6154965314863858e-02
    Z_71_0_3  constraint1_710  1
    Z_71_0_3  constraint2_713  1
    MARKER    'MARKER'                 'INTEND'
RHS
    RHS1      constraint1_5930  1
    RHS1      constraint1_80  1
    RHS1      constraint1_1920  1
    RHS1      constraint1_8121  1
    RHS1      constraint1_815  1
    RHS1      constraint1_813  1
    RHS1      constraint1_810  1
    RHS1      constraint1_814  1
    RHS1      constraint1_811  1
    RHS1      constraint1_816  1
    RHS1      constraint1_812  1
    RHS1      constraint1_760  1
    RHS1      constraint1_5090  1
    RHS1      constraint1_710  1
    RHS1      constraint2_5930  1
    RHS1      constraint2_5931  1
    RHS1      constraint2_5932  1
    RHS1      constraint2_5933  1
    RHS1      constraint2_80  1
    RHS1      constraint2_81  1
    RHS1      constraint2_82  1
    RHS1      constraint2_83  1
    RHS1      constraint2_1920  1
    RHS1      constraint2_1921  1
    RHS1      constraint2_1922  1
    RHS1      constraint2_1923  1
    RHS1      constraint2_810  1
    RHS1      constraint2_811  1
    RHS1      constraint2_812  1
    RHS1      constraint2_813  1
    RHS1      constraint2_760  1
    RHS1      constraint2_761  1
    RHS1      constraint2_762  1
    RHS1      constraint2_763  1
    RHS1      constraint2_5090  1
    RHS1      constraint2_5091  1
    RHS1      constraint2_5092  1
    RHS1      constraint2_5093  1
    RHS1      constraint2_710  1
    RHS1      constraint2_711  1
    RHS1      constraint2_712  1
    RHS1      constraint2_713  1
BOUNDS
 UP BND1      Z_593_0_0  1
 UP BND1      Z_593_0_1  1
 UP BND1      Z_593_0_2  1
 UP BND1      Z_593_0_3  1
 UP BND1      Z_8_0_0   1
 UP BND1      Z_8_0_1   1
 UP BND1      Z_8_0_2   1
 UP BND1      Z_8_0_3   1
 UP BND1      Z_192_0_0  1
 UP BND1      Z_192_0_1  1
 UP BND1      Z_192_0_2  1
 UP BND1      Z_192_0_3  1
 UP BND1      Z_81_21_0  1
 UP BND1      Z_81_21_1  1
 UP BND1      Z_81_21_2  1
 UP BND1      Z_81_21_3  1
 UP BND1      Z_81_5_0  1
 UP BND1      Z_81_5_1  1
 UP BND1      Z_81_5_2  1
 UP BND1      Z_81_5_3  1
 UP BND1      Z_81_3_0  1
 UP BND1      Z_81_3_1  1
 UP BND1      Z_81_3_2  1
 UP BND1      Z_81_3_3  1
 UP BND1      Z_81_0_0  1
 UP BND1      Z_81_0_1  1
 UP BND1      Z_81_0_2  1
 UP BND1      Z_81_0_3  1
 UP BND1      Z_81_4_0  1
 UP BND1      Z_81_4_1  1
 UP BND1      Z_81_4_2  1
 UP BND1      Z_81_4_3  1
 UP BND1      Z_81_1_0  1
 UP BND1      Z_81_1_1  1
 UP BND1      Z_81_1_2  1
 UP BND1      Z_81_1_3  1
 UP BND1      Z_81_6_0  1
 UP BND1      Z_81_6_1  1
 UP BND1      Z_81_6_2  1
 UP BND1      Z_81_6_3  1
 UP BND1      Z_81_2_0  1
 UP BND1      Z_81_2_1  1
 UP BND1      Z_81_2_2  1
 UP BND1      Z_81_2_3  1
 UP BND1      Z_76_0_0  1
 UP BND1      Z_76_0_1  1
 UP BND1      Z_76_0_2  1
 UP BND1      Z_76_0_3  1
 UP BND1      Z_509_0_0  1
 UP BND1      Z_509_0_1  1
 UP BND1      Z_509_0_2  1
 UP BND1      Z_509_0_3  1
 UP BND1      Z_71_0_0  1
 UP BND1      Z_71_0_1  1
 UP BND1      Z_71_0_2  1
 UP BND1      Z_71_0_3  1
QUADOBJ
    Z_593_0_0  Z_8_0_0   -6.0843699296917238e-03
    Z_593_0_0  Z_81_1_0  -6.0843699296917238e-03
    Z_593_0_0  Z_81_6_0  -6.0843699296917238e-03
    Z_593_0_0  Z_81_2_0  -6.0843699296917238e-03
    Z_593_0_1  Z_8_0_1   -6.0843699296917238e-03
    Z_593_0_1  Z_81_1_1  -6.0843699296917238e-03
    Z_593_0_1  Z_81_6_1  -6.0843699296917238e-03
    Z_593_0_1  Z_81_2_1  -6.0843699296917238e-03
    Z_593_0_2  Z_8_0_2   -6.0843699296917238e-03
    Z_593_0_2  Z_81_1_2  -6.0843699296917238e-03
    Z_593_0_2  Z_81_6_2  -6.0843699296917238e-03
    Z_593_0_2  Z_81_2_2  -6.0843699296917238e-03
    Z_593_0_3  Z_8_0_3   -6.0843699296917238e-03
    Z_593_0_3  Z_81_1_3  -6.0843699296917238e-03
    Z_593_0_3  Z_81_6_3  -6.0843699296917238e-03
    Z_593_0_3  Z_81_2_3  -6.0843699296917238e-03
    Z_8_0_0   Z_192_0_0  -8.6258092663207941e-02
    Z_8_0_0   Z_81_3_0  -1.9999999999999996e-01
    Z_8_0_0   Z_81_4_0  -1.9999999999999996e-01
    Z_8_0_0   Z_81_1_0  -1.4321358755531288e-01
    Z_8_0_0   Z_81_6_0  -6.1313459546337996e-02
    Z_8_0_0   Z_81_2_0  -1.0161459643293495e-01
    Z_8_0_0   Z_76_0_0  -7.5061213675676156e-02
    Z_8_0_0   Z_509_0_0  -1.9999999999999996e-01
    Z_8_0_1   Z_192_0_1  -8.6258092663207941e-02
    Z_8_0_1   Z_81_3_1  -1.9999999999999996e-01
    Z_8_0_1   Z_81_4_1  -1.9999999999999996e-01
    Z_8_0_1   Z_81_1_1  -1.4321358755531288e-01
    Z_8_0_1   Z_81_6_1  -6.1313459546337996e-02
    Z_8_0_1   Z_81_2_1  -1.0161459643293495e-01
    Z_8_0_1   Z_76_0_1  -7.5061213675676156e-02
    Z_8_0_1   Z_509_0_1  -1.9999999999999996e-01
    Z_8_0_2   Z_192_0_2  -8.6258092663207941e-02
    Z_8_0_2   Z_81_3_2  -1.9999999999999996e-01
    Z_8_0_2   Z_81_4_2  -1.9999999999999996e-01
    Z_8_0_2   Z_81_1_2  -1.4321358755531288e-01
    Z_8_0_2   Z_81_6_2  -6.1313459546337996e-02
    Z_8_0_2   Z_81_2_2  -1.0161459643293495e-01
    Z_8_0_2   Z_76_0_2  -7.5061213675676156e-02
    Z_8_0_2   Z_509_0_2  -1.9999999999999996e-01
    Z_8_0_3   Z_192_0_3  -8.6258092663207941e-02
    Z_8_0_3   Z_81_3_3  -1.9999999999999996e-01
    Z_8_0_3   Z_81_4_3  -1.9999999999999996e-01
    Z_8_0_3   Z_81_1_3  -1.4321358755531288e-01
    Z_8_0_3   Z_81_6_3  -6.1313459546337996e-02
    Z_8_0_3   Z_81_2_3  -1.0161459643293495e-01
    Z_8_0_3   Z_76_0_3  -7.5061213675676156e-02
    Z_8_0_3   Z_509_0_3  -1.9999999999999996e-01
    Z_192_0_0  Z_81_3_0  -1.9999999999999996e-01
    Z_192_0_0  Z_81_4_0  -1.9999999999999996e-01
    Z_192_0_0  Z_81_1_0  -1.2929772280882137e-01
    Z_192_0_0  Z_81_6_0  -8.6461505942056635e-02
    Z_192_0_0  Z_81_2_0  -1.0085646302991054e-01
    Z_192_0_0  Z_76_0_0  -8.2094753059989242e-02
    Z_192_0_1  Z_81_3_1  -1.9999999999999996e-01
    Z_192_0_1  Z_81_4_1  -1.9999999999999996e-01
    Z_192_0_1  Z_81_1_1  -1.2929772280882137e-01
    Z_192_0_1  Z_81_6_1  -8.6461505942056635e-02
    Z_192_0_1  Z_81_2_1  -1.0085646302991054e-01
    Z_192_0_1  Z_76_0_1  -8.2094753059989242e-02
    Z_192_0_2  Z_81_3_2  -1.9999999999999996e-01
    Z_192_0_2  Z_81_4_2  -1.9999999999999996e-01
    Z_192_0_2  Z_81_1_2  -1.2929772280882137e-01
    Z_192_0_2  Z_81_6_2  -8.6461505942056635e-02
    Z_192_0_2  Z_81_2_2  -1.0085646302991054e-01
    Z_192_0_2  Z_76_0_2  -8.2094753059989242e-02
    Z_192_0_3  Z_81_3_3  -1.9999999999999996e-01
    Z_192_0_3  Z_81_4_3  -1.9999999999999996e-01
    Z_192_0_3  Z_81_1_3  -1.2929772280882137e-01
    Z_192_0_3  Z_81_6_3  -8.6461505942056635e-02
    Z_192_0_3  Z_81_2_3  -1.0085646302991054e-01
    Z_192_0_3  Z_76_0_3  -8.2094753059989242e-02
    Z_81_21_0  Z_76_0_0  -5.5555555555555545e-05
    Z_81_21_1  Z_76_0_1  -5.5555555555555545e-05
    Z_81_21_2  Z_76_0_2  -5.5555555555555545e-05
    Z_81_21_3  Z_76_0_3  -5.5555555555555545e-05
    Z_81_4_0  Z_76_0_0  -1.9999999999999996e-01
    Z_81_4_1  Z_76_0_1  -1.9999999999999996e-01
    Z_81_4_2  Z_76_0_2  -1.9999999999999996e-01
    Z_81_4_3  Z_76_0_3  -1.9999999999999996e-01
    Z_81_1_0  Z_76_0_0  -4.8138416384584576e-02
    Z_81_1_0  Z_509_0_0  -1.9999999999999996e-01
    Z_81_1_1  Z_76_0_1  -4.8138416384584576e-02
    Z_81_1_1  Z_509_0_1  -1.9999999999999996e-01
    Z_81_1_2  Z_76_0_2  -4.8138416384584576e-02
    Z_81_1_2  Z_509_0_2  -1.9999999999999996e-01
    Z_81_1_3  Z_76_0_3  -4.8138416384584576e-02
    Z_81_1_3  Z_509_0_3  -1.9999999999999996e-01
    Z_81_6_0  Z_76_0_0  -4.0904377700199092e-02
    Z_81_6_0  Z_509_0_0  -1.9999999999999996e-01
    Z_81_6_1  Z_76_0_1  -4.0904377700199092e-02
    Z_81_6_1  Z_509_0_1  -1.9999999999999996e-01
    Z_81_6_2  Z_76_0_2  -4.0904377700199092e-02
    Z_81_6_2  Z_509_0_2  -1.9999999999999996e-01
    Z_81_6_3  Z_76_0_3  -4.0904377700199092e-02
    Z_81_6_3  Z_509_0_3  -1.9999999999999996e-01
    Z_81_2_0  Z_76_0_0  -5.0533010348439079e-02
    Z_81_2_0  Z_509_0_0  -1.9999999999999996e-01
    Z_81_2_1  Z_76_0_1  -5.0533010348439079e-02
    Z_81_2_1  Z_509_0_1  -1.9999999999999996e-01
    Z_81_2_2  Z_76_0_2  -5.0533010348439079e-02
    Z_81_2_2  Z_509_0_2  -1.9999999999999996e-01
    Z_81_2_3  Z_76_0_3  -5.0533010348439079e-02
    Z_81_2_3  Z_509_0_3  -1.9999999999999996e-01
    Z_76_0_0  Z_509_0_0  -1.9999999999999996e-01
    Z_76_0_1  Z_509_0_1  -1.9999999999999996e-01
    Z_76_0_2  Z_509_0_2  -1.9999999999999996e-01
    Z_76_0_3  Z_509_0_3  -1.9999999999999996e-01
ENDATA
