ilp_joint/output/phototropism_ilp.sol
# Solution for model phototropism_srl_ilp
# Objective value = 2.7611284695774594e+00
Z_153_0_0 0
Z_153_0_1 1
Z_153_0_2 0
Z_153_0_3 0
Z_153_0_4 0
Z_657_0_0 0
Z_657_0_1 0
Z_657_0_2 0
Z_657_0_3 0
Z_657_0_4 1
Z_148_0_0 0
Z_148_0_1 0
Z_148_0_2 0
Z_148_0_3 0
Z_148_0_4 1
Z_222_0_0 0
Z_222_0_1 0
Z_222_0_2 0
Z_222_0_3 0
Z_222_0_4 1
